(set-logic LIA)

(synth-fun floorIsOrdered ( (__iv__input_0_ Int) (__iv__input_1_ Int) (__iv__input_2_ Int) (__iv__input_3_ Int) (__iv__input_4_ Int) (__iv__input_5_ Int) (__iv__input_6_ Int) (__iv__input_7_ Int) (__iv__input_8_ Int) (__iv__input_9_ Int) (__iv__input_10_ Int) (__iv__input_11_ Int) (__iv__input_12_ Int) (__iv__input_13_ Int)) Int
((Start Int (ntInt))
(ntInt Int (
	0 1 2 3 4 -1 5 
	__iv__input_0_ __iv__input_1_ __iv__input_2_ __iv__input_3_ __iv__input_4_ __iv__input_5_ __iv__input_6_ __iv__input_7_ __iv__input_8_ __iv__input_9_ __iv__input_10_ __iv__input_11_ __iv__input_12_ __iv__input_13_ 
	(* ntInt ntInt)
	(ite ntBool ntInt ntInt)
	(+ ntInt ntInt)
	(- ntInt ntInt)
))
(ntBool Bool (
	(not ntBool)
	(or ntBool ntBool)
	(and ntBool ntBool)
	(< ntInt ntInt)
	(= ntInt ntInt)
	(>= ntInt ntInt)
))
))

(constraint (=(floorIsOrdered 0 -1 0 0 0 0 1 0 1 0 0 0 0 0) 1))
(constraint (=(floorIsOrdered 0 0 0 0 0 0 1 0 1 0 0 0 0 0) 1))
(constraint (=(floorIsOrdered 0 0 0 0 0 0 1 1 1 0 0 0 0 0) 1))
(constraint (=(floorIsOrdered 1 1 0 0 0 0 1 1 1 0 0 0 0 0) 0))
(constraint (=(floorIsOrdered 1 0 0 0 0 0 1 0 1 0 0 0 0 0) 0))
(constraint (=(floorIsOrdered 2 1 0 1 1 1 1 0 1 1 1 1 1 1) 1))
(constraint (=(floorIsOrdered 2 1 0 0 0 0 0 0 1 0 0 0 0 0) 1))
(constraint (=(floorIsOrdered 2 1 0 0 0 1 1 1 1 0 0 0 1 0) 1))
(constraint (=(floorIsOrdered 2 1 0 0 0 1 1 1 1 0 0 0 1 1) 1))
(constraint (=(floorIsOrdered 2 1 0 0 1 1 1 1 1 1 0 0 1 1) 1))
(constraint (=(floorIsOrdered 1 1 0 0 1 1 1 1 0 0 1 1 1 0) 1))
(constraint (=(floorIsOrdered 1 1 1 0 1 1 1 1 0 0 1 1 1 1) 1))
(constraint (=(floorIsOrdered 1 0 0 0 0 0 1 1 1 0 0 0 0 0) 1))
(constraint (=(floorIsOrdered 0 0 0 0 0 0 1 1 1 0 0 0 1 0) 1))
(constraint (=(floorIsOrdered 0 0 0 0 0 0 1 1 1 0 0 0 1 1) 1))
(constraint (=(floorIsOrdered 1 0 0 0 0 1 1 0 1 1 0 1 1 1) 1))
(constraint (=(floorIsOrdered 1 0 0 0 0 1 1 0 1 1 1 1 1 1) 1))
(constraint (=(floorIsOrdered 2 1 1 0 1 1 1 0 1 1 1 1 1 1) 1))
(constraint (=(floorIsOrdered 2 1 0 0 0 0 0 1 0 0 0 0 1 0) 1))
(constraint (=(floorIsOrdered 2 1 0 0 0 0 0 1 0 0 0 0 1 1) 1))
(constraint (=(floorIsOrdered 2 0 0 0 0 1 1 1 0 0 0 0 1 1) 1))
(constraint (=(floorIsOrdered 1 -1 1 0 0 1 1 1 0 0 0 0 1 1) 1))
(constraint (=(floorIsOrdered 1 -1 1 0 0 1 1 1 1 0 0 0 1 1) 1))
(constraint (=(floorIsOrdered 1 -1 1 1 0 1 1 1 1 0 0 0 1 1) 1))
(constraint (=(floorIsOrdered 1 -1 1 1 0 1 1 1 1 0 0 1 1 1) 1))
(constraint (=(floorIsOrdered 1 -1 1 1 1 1 1 1 1 0 0 1 1 1) 1))
(constraint (=(floorIsOrdered 1 1 0 0 0 0 0 0 1 0 0 0 0 0) 0))
(constraint (=(floorIsOrdered 0 -1 1 0 0 0 1 0 1 0 0 0 0 0) 1))
(constraint (=(floorIsOrdered 0 0 0 0 1 1 1 0 1 0 0 0 0 0) 1))
(constraint (=(floorIsOrdered 1 1 0 0 1 1 1 0 1 0 1 1 0 1) 1))
(constraint (=(floorIsOrdered 1 1 0 0 1 1 1 1 1 0 1 1 0 1) 1))
(constraint (=(floorIsOrdered 1 0 0 0 1 1 1 1 1 0 1 0 1 1) 1))
(constraint (=(floorIsOrdered 0 0 0 1 1 1 1 1 1 0 1 0 1 1) 1))
(constraint (=(floorIsOrdered 0 0 0 1 1 1 0 1 1 1 1 1 1 1) 1))
(constraint (=(floorIsOrdered 2 1 1 0 1 1 1 0 1 1 1 0 1 1) 1))
(constraint (=(floorIsOrdered 2 1 1 1 1 1 1 0 1 1 1 0 1 1) 1))
(constraint (=(floorIsOrdered 1 1 0 1 0 1 0 0 0 0 1 0 1 1) 1))
(constraint (=(floorIsOrdered 1 1 0 1 0 1 0 1 0 0 1 1 1 1) 1))
(constraint (=(floorIsOrdered 1 0 0 1 0 1 0 1 1 0 1 1 1 1) 1))
(constraint (=(floorIsOrdered 1 0 0 1 0 1 0 1 1 1 1 1 1 1) 1))
(constraint (=(floorIsOrdered 2 1 1 0 0 1 1 0 1 1 1 1 1 1) 1))
(constraint (=(floorIsOrdered 2 1 1 0 0 1 1 1 1 1 1 1 1 1) 1))
(constraint (=(floorIsOrdered 1 0 0 0 1 0 0 1 1 0 0 0 0 0) 1))
(constraint (=(floorIsOrdered 1 0 0 0 1 0 1 1 1 0 0 0 0 1) 1))
(constraint (=(floorIsOrdered 1 0 0 0 1 0 1 1 1 0 1 0 0 1) 1))
(constraint (=(floorIsOrdered 2 1 0 0 1 1 1 1 1 1 1 0 1 1) 1))
(constraint (=(floorIsOrdered 2 1 1 0 1 1 1 1 1 1 1 0 1 1) 1))
(constraint (=(floorIsOrdered 2 0 0 0 1 0 0 1 1 1 0 1 1 1) 1))
(constraint (=(floorIsOrdered 1 -1 1 0 1 1 1 1 1 1 0 1 1 1) 1))
(constraint (=(floorIsOrdered 3 1 0 0 0 1 0 1 1 1 0 1 0 1) 1))
(constraint (=(floorIsOrdered 3 1 0 0 0 1 0 1 1 1 0 1 1 1) 1))
(constraint (=(floorIsOrdered 3 1 0 0 1 1 0 1 1 1 0 1 1 1) 1))
(constraint (=(floorIsOrdered 3 0 1 0 1 1 1 1 1 0 1 1 1 1) 1))
(constraint (=(floorIsOrdered 2 0 1 1 0 1 1 1 0 0 1 1 1 1) 1))
(constraint (=(floorIsOrdered 1 -1 1 1 1 1 1 1 0 0 1 1 1 1) 1))
(constraint (=(floorIsOrdered 1 1 0 0 0 0 0 1 0 0 0 0 0 1) 1))
(constraint (=(floorIsOrdered 1 1 0 0 0 0 1 1 0 0 0 0 0 1) 1))
(constraint (=(floorIsOrdered 1 1 0 0 1 0 1 1 1 0 0 1 1 1) 1))
(constraint (=(floorIsOrdered 1 1 0 0 1 0 1 1 1 0 1 1 1 1) 1))
(constraint (=(floorIsOrdered 1 1 0 0 0 1 0 1 0 0 1 1 0 0) 1))
(constraint (=(floorIsOrdered 1 1 0 0 0 1 0 1 0 0 1 1 1 0) 1))
(constraint (=(floorIsOrdered 1 1 0 0 1 1 0 1 0 1 1 1 1 0) 1))
(constraint (=(floorIsOrdered 1 1 0 0 1 1 0 1 1 1 1 1 1 0) 1))
(constraint (=(floorIsOrdered 1 1 0 0 1 1 0 1 1 1 1 1 1 1) 1))
(constraint (=(floorIsOrdered 1 1 0 0 1 1 1 1 1 1 1 1 1 1) 1))
(constraint (=(floorIsOrdered 1 1 1 0 1 1 1 1 1 1 1 1 1 1) 1))
(constraint (=(floorIsOrdered 1 1 0 0 0 0 1 1 0 0 0 0 1 0) 1))
(constraint (=(floorIsOrdered 1 1 0 0 0 1 1 1 0 0 0 0 1 0) 0))
(constraint (=(floorIsOrdered 1 0 0 0 0 1 1 1 0 0 0 0 1 0) 1))
(constraint (=(floorIsOrdered 1 0 0 0 1 1 1 1 1 0 0 0 1 0) 1))
(constraint (=(floorIsOrdered 1 0 0 0 1 1 1 1 1 0 1 0 1 0) 1))
(constraint (=(floorIsOrdered 2 1 0 0 1 1 1 1 1 0 1 1 1 1) 1))
(constraint (=(floorIsOrdered 1 0 0 0 0 0 0 1 0 0 0 0 0 0) 1))
(constraint (=(floorIsOrdered 0 -1 0 0 0 0 1 1 0 0 0 1 0 0) 1))
(constraint (=(floorIsOrdered 0 -1 0 0 0 0 1 1 0 0 1 1 0 0) 1))
(constraint (=(floorIsOrdered 1 1 0 0 1 0 1 1 1 1 1 1 0 0) 1))
(constraint (=(floorIsOrdered 1 1 0 0 1 0 1 1 1 1 1 1 1 0) 1))
(constraint (=(floorIsOrdered 1 1 0 0 1 0 1 1 1 1 1 1 1 1) 1))
(constraint (=(floorIsOrdered 1 0 0 0 0 0 0 0 1 0 1 1 0 0) 1))
(constraint (=(floorIsOrdered 0 0 1 0 0 0 0 1 1 0 0 1 0 0) 1))
(constraint (=(floorIsOrdered 0 0 0 0 0 0 0 1 1 0 0 1 0 0) 0))
(constraint (=(floorIsOrdered 0 -1 1 0 0 0 0 0 1 0 0 0 0 0) 1))
(constraint (=(floorIsOrdered 0 -1 1 0 0 0 0 0 1 0 1 0 0 0) 1))
(constraint (=(floorIsOrdered 1 0 1 1 0 1 1 0 1 0 1 1 1 1) 1))
(constraint (=(floorIsOrdered 1 0 1 1 1 1 1 0 1 1 1 1 1 1) 1))
(constraint (=(floorIsOrdered 1 0 1 0 1 1 1 0 1 1 1 1 1 1) 1))
(constraint (=(floorIsOrdered 2 1 1 1 1 1 1 0 1 1 1 1 1 1) 1))
(constraint (=(floorIsOrdered 1 0 0 0 0 0 0 0 0 1 1 1 0 0) 1))
(constraint (=(floorIsOrdered 1 0 0 1 0 0 0 0 0 1 1 1 0 0) 1))
(constraint (=(floorIsOrdered 0 0 0 0 0 0 1 0 0 1 0 1 0 0) 1))
(constraint (=(floorIsOrdered 0 0 0 0 0 0 1 0 0 1 1 1 0 0) 1))
(constraint (=(floorIsOrdered 1 0 0 1 1 0 0 0 0 1 0 1 0 0) 1))
(constraint (=(floorIsOrdered 2 0 0 0 1 0 0 0 0 1 0 1 0 0) 1))
(constraint (=(floorIsOrdered 3 1 0 0 0 1 1 0 1 1 0 1 0 0) 1))
(constraint (=(floorIsOrdered 3 1 1 1 0 1 1 0 1 1 0 1 1 0) 1))
(constraint (=(floorIsOrdered 3 1 1 1 0 1 1 0 1 1 1 1 1 0) 1))
(constraint (=(floorIsOrdered 3 1 1 1 0 1 1 0 1 1 1 1 1 1) 1))
(constraint (=(floorIsOrdered 2 0 0 0 0 0 1 1 1 1 0 0 1 0) 1))
(constraint (=(floorIsOrdered 3 0 0 0 0 0 1 1 1 1 0 0 0 0) 1))
(constraint (=(floorIsOrdered 2 -1 0 0 0 0 1 1 1 0 0 0 0 0) 1))
(constraint (=(floorIsOrdered 2 0 0 0 1 0 1 1 0 0 0 0 0 0) 1))
(constraint (=(floorIsOrdered 2 0 1 0 1 0 1 1 1 0 1 0 0 0) 1))
(constraint (=(floorIsOrdered 2 0 1 0 1 0 1 1 1 0 1 0 1 0) 1))
(constraint (=(floorIsOrdered 2 0 1 0 1 1 1 1 1 1 1 0 1 0) 1))
(constraint (=(floorIsOrdered 1 -1 1 0 1 1 1 1 1 1 1 0 1 0) 1))
(constraint (=(floorIsOrdered 1 -1 1 0 1 1 1 1 1 1 1 0 1 1) 1))
(constraint (=(floorIsOrdered 1 -1 1 0 1 1 1 1 1 1 1 1 1 1) 1))
(constraint (=(floorIsOrdered 1 1 1 0 0 0 1 1 1 0 0 1 1 1) 1))
(constraint (=(floorIsOrdered 1 1 1 0 0 0 1 1 1 1 0 1 1 1) 1))
(constraint (=(floorIsOrdered 1 0 0 0 0 0 1 1 0 1 0 1 1 1) 1))
(constraint (=(floorIsOrdered 1 0 0 0 0 0 1 1 0 1 0 0 1 1) 1))
(constraint (=(floorIsOrdered 1 0 0 0 0 0 1 0 0 1 0 1 1 1) 1))
(constraint (=(floorIsOrdered 2 1 0 0 1 0 1 0 1 1 0 1 1 1) 1))
(constraint (=(floorIsOrdered 3 1 0 0 0 1 1 1 0 1 0 1 0 1) 1))
(constraint (=(floorIsOrdered 3 1 0 0 0 1 1 1 0 1 0 1 1 1) 1))
(constraint (=(floorIsOrdered 3 1 1 0 1 1 1 1 0 1 1 1 1 1) 1))
(constraint (=(floorIsOrdered 1 1 0 0 0 0 1 0 0 0 0 1 0 0) 1))
(constraint (=(floorIsOrdered 1 0 1 0 0 0 1 1 0 0 0 0 0 0) 1))
(constraint (=(floorIsOrdered 1 1 1 1 0 1 1 1 1 1 1 1 1 0) 1))
(constraint (=(floorIsOrdered 0 -1 1 1 0 0 0 0 1 0 0 0 0 0) 1))
(constraint (=(floorIsOrdered 0 -1 1 1 0 0 0 0 1 0 1 0 0 0) 1))
(constraint (=(floorIsOrdered 0 -1 1 1 0 0 0 0 1 0 1 1 0 0) 1))
(constraint (=(floorIsOrdered 1 0 0 0 0 1 0 0 1 0 0 1 0 0) 1))
(constraint (=(floorIsOrdered 1 0 0 1 0 1 0 0 1 0 0 0 0 0) 1))
(constraint (=(floorIsOrdered 0 0 1 0 0 1 1 0 1 0 1 1 0 0) 1))
(constraint (=(floorIsOrdered 2 1 0 1 1 1 1 1 1 0 0 0 0 0) 1))
(constraint (=(floorIsOrdered 2 1 0 1 1 1 1 1 1 0 0 0 1 0) 1))
(constraint (=(floorIsOrdered 2 1 0 1 1 1 1 1 1 1 1 1 1 0) 1))
(constraint (=(floorIsOrdered 2 1 1 1 1 1 1 1 1 1 1 1 1 0) 1))
(constraint (=(floorIsOrdered 1 1 0 1 0 0 0 1 1 0 0 0 0 0) 1))
(constraint (=(floorIsOrdered 2 1 0 0 0 0 0 0 1 0 1 0 0 0) 1))
(constraint (=(floorIsOrdered 2 1 0 0 0 0 0 0 1 0 1 1 0 0) 1))
(constraint (=(floorIsOrdered 2 1 0 0 0 1 1 0 1 0 1 1 1 0) 1))
(constraint (=(floorIsOrdered 2 1 0 0 0 1 1 0 1 0 1 1 1 1) 1))
(constraint (=(floorIsOrdered 2 1 1 1 0 1 1 1 1 1 1 1 1 1) 1))
(constraint (=(floorIsOrdered 1 1 0 0 0 0 0 1 0 0 0 0 0 0) 1))
(constraint (=(floorIsOrdered 1 0 0 0 0 0 1 1 0 0 1 0 0 0) 1))
(constraint (=(floorIsOrdered 1 0 0 0 0 0 1 1 1 0 1 0 0 0) 1))
(constraint (=(floorIsOrdered 0 -1 0 0 0 0 1 1 1 0 1 0 0 0) 1))
(constraint (=(floorIsOrdered 1 1 0 1 0 1 0 1 1 0 1 1 1 1) 1))
(constraint (=(floorIsOrdered 0 0 1 1 1 1 1 1 1 1 0 1 1 1) 1))
(constraint (=(floorIsOrdered 2 1 1 1 1 1 1 1 1 1 1 0 1 1) 1))
(constraint (=(floorIsOrdered 2 1 1 1 1 1 1 1 1 1 1 1 1 1) 1))
(constraint (=(floorIsOrdered 1 1 0 1 0 0 0 1 0 0 1 1 0 0) 1))
(constraint (=(floorIsOrdered 1 1 0 1 1 1 0 1 0 0 1 1 0 0) 1))
(constraint (=(floorIsOrdered 1 1 0 1 1 1 1 1 0 0 1 1 0 0) 1))
(constraint (=(floorIsOrdered 1 1 0 1 1 1 1 1 0 0 1 1 1 0) 1))
(constraint (=(floorIsOrdered 1 1 1 1 1 1 1 1 0 0 1 1 1 0) 1))
(constraint (=(floorIsOrdered 1 1 0 1 0 0 0 0 0 0 0 0 0 1) 1))
(constraint (=(floorIsOrdered 1 1 0 1 0 0 0 0 0 1 0 0 0 1) 1))
(constraint (=(floorIsOrdered 1 1 0 1 0 0 0 0 1 1 1 1 0 1) 1))
(constraint (=(floorIsOrdered 1 1 0 1 0 0 0 1 1 1 1 1 0 1) 1))
(constraint (=(floorIsOrdered 1 1 0 1 0 1 0 1 1 1 1 1 0 1) 1))
(constraint (=(floorIsOrdered 1 1 0 1 0 1 1 1 1 1 1 1 0 1) 1))
(constraint (=(floorIsOrdered 1 1 0 1 1 1 1 1 1 1 1 1 0 1) 1))
(constraint (=(floorIsOrdered 1 1 0 1 1 1 1 1 1 1 1 1 1 1) 1))
(constraint (=(floorIsOrdered 1 1 0 1 0 0 0 0 0 0 0 0 0 0) 1))
(constraint (=(floorIsOrdered 1 1 0 1 0 0 0 0 0 0 0 1 0 0) 1))
(constraint (=(floorIsOrdered 1 0 1 1 1 1 1 0 1 0 1 0 1 0) 1))
(constraint (=(floorIsOrdered 1 0 1 1 1 1 1 0 1 0 1 0 1 1) 1))
(constraint (=(floorIsOrdered 0 -1 1 1 1 1 1 1 1 1 1 0 1 1) 1))
(constraint (=(floorIsOrdered 0 -1 1 1 1 1 1 1 1 1 1 1 1 1) 1))
(constraint (=(floorIsOrdered 1 1 0 0 0 0 0 1 1 0 0 1 1 1) 1))
(constraint (=(floorIsOrdered 1 0 0 0 0 1 0 0 1 0 1 0 1 1) 0))
(constraint (=(floorIsOrdered 1 0 0 0 0 1 1 0 1 0 1 0 1 1) 0))
(constraint (=(floorIsOrdered 1 0 0 0 1 1 1 0 1 1 1 0 1 1) 0))
(constraint (=(floorIsOrdered 1 0 1 0 1 1 1 0 1 1 1 0 1 1) 0))
(constraint (=(floorIsOrdered 0 -6 11 45 -2 -41 25 -51 -28 -10 15 1 10 -37) 0))
(constraint (=(floorIsOrdered 0 -114 47 -28 -75 -19 -58 -10 71 1 -13 -5 53 35) 0))
(constraint (=(floorIsOrdered 0 0 1 1 -30 0 0 0 -1 0 -2 -15 0 21) 1))
(constraint (=(floorIsOrdered 0 0 0 35 0 25 0 0 0 -15 24 14 0 0) 0))
(constraint (=(floorIsOrdered 0 1 -29 0 0 0 0 0 0 0 -23 2 -23 0) 0))
(constraint (=(floorIsOrdered 0 9 9 -10 11 -5 6 -26 15 -28 -2 -27 -27 -17) 0))
(constraint (=(floorIsOrdered 0 -12 0 -24 0 0 0 0 13 -28 1 14 -4 22) 1))
(constraint (=(floorIsOrdered 2 1 0 10 3 0 19 0 0 0 24 2 26 0) 0))
(constraint (=(floorIsOrdered 1 -1 17 0 -26 -20 -21 -15 0 0 0 0 -24 33) 0))
(check-synth)